p wcnf 179 268 269 
1 -43 59 0 
1 47 -59 0 
1 -103 158 0 
1 -55 78 0 
1 -49 6 0 
1 -13 130 0 
1 -24 -33 0 
1 89 166 0 
1 -3 -15 0 
1 14 158 0 
1 -152 -94 0 
1 -117 -73 0 
1 145 98 0 
1 -61 -39 0 
1 1 -16 0 
1 -176 -138 0 
1 -97 -41 0 
1 81 41 0 
1 10 120 0 
1 -13 -32 0 
1 148 20 0 
1 -90 -121 0 
1 -153 -131 0 
1 -77 26 0 
1 -107 126 0 
1 -83 -8 0 
1 48 25 0 
1 57 -84 0 
1 -90 14 0 
1 71 -159 0 
1 -133 35 0 
1 141 -144 0 
1 143 -53 0 
1 162 43 0 
1 109 -20 0 
1 -97 96 0 
1 -8 33 0 
1 80 2 0 
1 33 -94 0 
1 -147 -101 0 
1 81 -22 0 
1 -64 101 0 
1 -5 136 0 
1 174 27 0 
1 -25 29 0 
1 -23 127 0 
1 45 -119 0 
1 -128 15 0 
1 -41 -50 0 
1 157 167 0 
1 -151 -17 0 
1 -142 58 0 
1 -27 169 0 
1 -42 -123 0 
1 -153 166 0 
1 113 -53 0 
1 122 5 0 
1 -62 -150 0 
1 -8 65 0 
1 -106 -176 0 
1 -73 -116 0 
1 69 144 0 
1 51 173 0 
1 -104 -34 0 
1 -174 84 0 
1 91 -159 0 
1 100 -135 0 
1 66 149 0 
1 2 1 0 
1 -74 9 0 
1 139 167 0 
1 4 -69 0 
1 111 71 0 
1 -49 -160 0 
1 -87 175 0 
1 -175 -69 0 
1 -66 165 0 
1 -72 -6 0 
1 -68 172 0 
1 125 -131 0 
1 -117 -9 0 
1 -43 -105 0 
1 -54 134 0 
1 26 21 0 
1 -151 -147 0 
1 -37 148 0 
1 -130 92 0 
1 -60 -62 0 
1 -159 -1 0 
1 -123 -50 0 
1 75 34 0 
1 -151 1 0 
1 49 -9 0 
1 -72 -87 0 
1 -3 -100 0 
1 -149 108 0 
1 179 113 0 
1 -27 21 0 
1 -167 -36 0 
1 -101 90 0 
1 -159 -44 0 
1 -34 -112 0 
1 103 -2 0 
1 135 60 0 
1 -141 -128 0 
1 103 -96 0 
1 -177 62 0 
1 -157 4 0 
1 -94 -135 0 
1 -47 43 0 
1 16 -129 0 
1 118 58 0 
1 -168 -176 0 
1 146 -132 0 
1 173 150 0 
1 -142 -148 0 
1 150 -158 0 
1 175 88 0 
1 148 -126 0 
1 108 -101 0 
1 -39 168 0 
1 19 -129 0 
1 103 -22 0 
1 -10 -95 0 
1 34 172 0 
1 -80 139 0 
1 -42 69 0 
1 155 38 0 
1 -111 -40 0 
1 -161 49 0 
1 -116 -83 0 
1 71 -24 0 
1 -177 -143 0 
1 -49 -168 0 
1 -55 -115 0 
1 49 57 0 
1 131 -102 0 
1 35 -28 0 
1 91 -127 0 
1 118 -109 0 
1 170 -108 0 
1 46 -157 0 
1 -146 -122 0 
1 -163 117 0 
1 80 -154 0 
1 111 -96 0 
1 21 -154 0 
1 -53 158 0 
1 -5 150 0 
1 52 -46 0 
1 -76 -43 0 
1 -132 -78 0 
1 -57 72 0 
1 160 128 0 
1 63 5 0 
1 -98 -152 0 
1 -80 -36 0 
1 -4 175 0 
1 38 -109 0 
1 72 -50 0 
1 49 -41 0 
1 35 -23 0 
1 -22 76 0 
1 -132 94 0 
1 -105 94 0 
1 158 137 0 
1 34 -126 0 
1 -50 95 0 
1 -24 -37 0 
1 -11 123 0 
1 -55 -164 0 
1 146 145 0 
1 131 -26 0 
1 9 66 0 
1 -134 112 0 
1 -130 49 0 
1 134 94 0 
1 -118 -108 0 
1 31 -122 0 
1 150 -9 0 
1 107 71 0 
1 -138 -27 0 
1 -99 -67 0 
1 98 24 0 
1 -155 132 0 
1 123 17 0 
1 -83 31 0 
1 -104 160 0 
1 -55 -54 0 
1 -172 114 0 
1 -139 -26 0 
1 78 -91 0 
1 -135 -27 0 
1 63 124 0 
1 -127 -3 0 
1 77 91 0 
1 -98 15 0 
1 115 -136 0 
1 -100 127 0 
1 71 -152 0 
1 -156 -176 0 
1 -55 98 0 
1 164 -132 0 
1 33 91 0 
1 -127 -104 0 
1 -110 -84 0 
1 -72 116 0 
1 99 167 0 
1 167 144 0 
1 153 -94 0 
1 54 125 0 
1 -132 -4 0 
1 -130 59 0 
1 44 19 0 
1 132 46 0 
1 100 152 0 
1 98 -107 0 
1 -161 30 0 
1 -52 75 0 
1 90 140 0 
1 116 62 0 
1 -111 42 0 
1 157 -104 0 
1 -152 95 0 
1 -106 34 0 
1 137 -119 0 
1 -134 61 0 
1 -8 -64 0 
1 62 -32 0 
1 69 50 0 
1 -60 122 0 
1 -41 167 0 
1 -144 -168 0 
1 -73 165 0 
1 -46 172 0 
1 -97 -13 0 
1 34 -58 0 
1 -146 -83 0 
1 33 -143 0 
1 -157 111 0 
1 94 -179 0 
1 40 -82 0 
1 100 -52 0 
1 -92 84 0 
1 16 56 0 
1 -47 -178 0 
1 27 8 0 
1 -96 81 0 
1 -37 -97 0 
1 -23 125 0 
1 -177 -173 0 
1 177 148 0 
1 -37 -105 0 
1 -128 -93 0 
1 116 168 0 
1 -84 31 0 
1 -52 33 0 
1 26 -64 0 
1 -78 50 0 
1 -24 67 0 
1 -62 159 0 
1 122 149 0 
1 19 147 0 
1 33 71 0 
1 166 156 0 
1 -124 -172 0 
1 87 -67 0 
1 127 -55 0 
